(set-info :smt-lib-version 2.6)
(set-logic QF_BV)
(set-info :source |
 Patrice Godefroid, SAGE (systematic dynamic test generation)
 For more information: http://research.microsoft.com/en-us/um/people/pg/public_psfiles/ndss2008.pdf
|)
(set-info :category "industrial")
(set-info :status unsat)
(declare-fun T2_2649 () (_ BitVec 16))
(declare-fun T1_2651 () (_ BitVec 8))
(declare-fun T1_2647 () (_ BitVec 8))
(declare-fun T2_2309 () (_ BitVec 16))
(declare-fun T1_2300 () (_ BitVec 8))
(declare-fun T2_1908 () (_ BitVec 16))
(declare-fun T1_1899 () (_ BitVec 8))
(declare-fun T1_2664 () (_ BitVec 8))
(declare-fun T1_2688 () (_ BitVec 8))
(declare-fun T4_2301 () (_ BitVec 32))
(declare-fun T1_2707 () (_ BitVec 8))
(declare-fun T2_2716 () (_ BitVec 16))
(declare-fun T4_1900 () (_ BitVec 32))
(declare-fun T1_2716 () (_ BitVec 8))
(declare-fun T1_2717 () (_ BitVec 8))
(declare-fun T1_2649 () (_ BitVec 8))
(declare-fun T1_2650 () (_ BitVec 8))
(declare-fun T1_2309 () (_ BitVec 8))
(declare-fun T1_2310 () (_ BitVec 8))
(declare-fun T1_2301 () (_ BitVec 8))
(declare-fun T1_2302 () (_ BitVec 8))
(declare-fun T1_2303 () (_ BitVec 8))
(declare-fun T1_2304 () (_ BitVec 8))
(declare-fun T1_1908 () (_ BitVec 8))
(declare-fun T1_1909 () (_ BitVec 8))
(declare-fun T1_1900 () (_ BitVec 8))
(declare-fun T1_1901 () (_ BitVec 8))
(declare-fun T1_1902 () (_ BitVec 8))
(declare-fun T1_1903 () (_ BitVec 8))
(assert (let ((?v_10 ((_ zero_extend 16) T2_2649)) (?v_22 ((_ zero_extend 24) T1_2651)) (?v_9 ((_ zero_extend 24) T1_2647)) (?v_8 ((_ zero_extend 16) T2_2309)) (?v_6 ((_ zero_extend 24) T1_2300))) (let ((?v_11 (bvsub ?v_6 (_ bv8 32))) (?v_2 ((_ zero_extend 16) T2_1908)) (?v_0 ((_ zero_extend 24) T1_1899))) (let ((?v_3 (bvsub ?v_0 (_ bv8 32)))) (let ((?v_5 (bvadd (bvadd ?v_3 (_ bv1583397 32)) ?v_2))) (let ((?v_18 (bvadd (bvadd (bvadd (bvadd ?v_5 (_ bv15 32)) ?v_11) (_ bv2 32)) ?v_8))) (let ((?v_28 (bvadd (bvadd (bvadd (bvadd ?v_18 (_ bv7 32)) ?v_9) (_ bv2 32)) ?v_10)) (?v_27 (bvadd ?v_10 (bvsub (_ bv4294967295 32) ?v_22))) (?v_23 ((_ zero_extend 24) T1_2664)) (?v_1 (bvadd ?v_0 (_ bv1 32)))) (let ((?v_4 (bvadd (bvadd ?v_1 (_ bv1583388 32)) ?v_2))) (let ((?v_7 (bvadd ?v_4 (_ bv6 32)))) (let ((?v_14 (bvadd (bvadd ?v_7 (bvadd ?v_6 (_ bv1 32))) (_ bv2 32)))) (let ((?v_12 (bvadd ?v_14 ?v_8))) (let ((?v_15 (bvadd ?v_12 (_ bv6 32)))) (let ((?v_20 (bvadd ?v_15 (bvadd ?v_9 (_ bv1 32))))) (let ((?v_13 (bvadd ?v_20 (_ bv2 32))) (?v_26 (bvadd ?v_27 (bvsub (_ bv4294967295 32) ?v_23))) (?v_25 ((_ zero_extend 24) T1_2688))) (let ((?v_24 (bvadd ?v_13 ?v_10))) (let ((?v_21 (bvadd ?v_24 (_ bv6 32))) (?v_19 (bvadd ?v_13 ?v_22)) (?v_16 ((_ zero_extend 24) T1_2707))) (let ((?v_17 (bvadd (bvadd ?v_21 (bvadd ?v_16 (_ bv1 32))) (_ bv2 32)))) (and true (= T4_1900 (bvor (bvshl (bvor (bvshl (bvor (bvshl ((_ zero_extend 24) T1_1903) (_ bv8 32)) ((_ zero_extend 24) T1_1902)) (_ bv8 32)) ((_ zero_extend 24) T1_1901)) (_ bv8 32)) ((_ zero_extend 24) T1_1900))) (= T2_1908 (bvor (bvshl ((_ zero_extend 8) T1_1909) (_ bv8 16)) ((_ zero_extend 8) T1_1908))) (= T4_2301 (bvor (bvshl (bvor (bvshl (bvor (bvshl ((_ zero_extend 24) T1_2304) (_ bv8 32)) ((_ zero_extend 24) T1_2303)) (_ bv8 32)) ((_ zero_extend 24) T1_2302)) (_ bv8 32)) ((_ zero_extend 24) T1_2301))) (= T2_2309 (bvor (bvshl ((_ zero_extend 8) T1_2310) (_ bv8 16)) ((_ zero_extend 8) T1_2309))) (= T2_2649 (bvor (bvshl ((_ zero_extend 8) T1_2650) (_ bv8 16)) ((_ zero_extend 8) T1_2649))) (= T2_2716 (bvor (bvshl ((_ zero_extend 8) T1_2717) (_ bv8 16)) ((_ zero_extend 8) T1_2716))) (bvslt (bvsub ?v_28 (_ bv1583185 32)) (_ bv0 32)) (bvule (bvadd (bvadd ?v_1 (_ bv1583386 32)) (_ bv2 32)) (_ bv1584214 32)) (bvule (_ bv8 32) ?v_0) (not (= ?v_0 (_ bv1 32))) (bvule (bvsub ?v_4 (_ bv1583368 32)) (_ bv846 32)) (bvule ?v_3 (_ bv0 32)) (bvule (bvadd ?v_7 (_ bv1 32)) (_ bv1584214 32)) (bvule (bvsub ?v_5 (_ bv1583368 32)) (_ bv846 32)) (= T4_1900 ?v_2) (bvule (_ bv8 32) ?v_6) (not (= ?v_6 (_ bv1 32))) (bvule (bvsub (bvadd ?v_17 ((_ zero_extend 16) T2_2716)) (_ bv1583368 32)) (_ bv846 32)) (bvule ?v_11 (_ bv0 32)) (bvule (bvsub ?v_12 (_ bv1583368 32)) (_ bv846 32)) (bvule (bvadd (bvadd (bvadd ?v_19 (_ bv1 32)) ?v_23) (_ bv2 32)) (_ bv1584214 32)) (bvule ?v_14 (_ bv1584214 32)) (bvule (bvadd ?v_15 (_ bv1 32)) (_ bv1584214 32)) (bvule (_ bv8 32) ?v_16) (not (= ?v_16 (_ bv1 32))) (bvule ?v_17 (_ bv1584214 32)) (bvule (bvsub ?v_18 (_ bv1583368 32)) (_ bv846 32)) (not (= T4_2301 ?v_8)) (bvule (bvadd ?v_19 (_ bv2 32)) (_ bv1584214 32)) (bvule (bvadd ?v_20 (_ bv3 32)) (_ bv1584214 32)) (bvule (bvadd ?v_21 (_ bv1 32)) (_ bv1584214 32)) (= (bvadd ?v_26 (bvsub (_ bv4294967295 32) ?v_25)) (_ bv0 32)) (bvule (bvsub ?v_24 (_ bv1583368 32)) (_ bv846 32)) (bvule (bvadd ?v_25 (_ bv1 32)) ?v_26) (not (= ?v_26 (_ bv0 32))) (bvult ?v_9 (_ bv8 32)) (not (= ?v_9 (_ bv0 32))) (= ?v_9 (_ bv1 32)) (bvule ?v_13 (_ bv1584214 32)) (bvule (bvadd ?v_23 (_ bv1 32)) ?v_27) (not (= ?v_27 (_ bv0 32))) (bvule (bvsub ?v_28 (_ bv1583368 32)) (_ bv846 32)) (bvule (bvadd ?v_22 (_ bv1 32)) ?v_10) (not (= ?v_10 (_ bv0 32)))))))))))))))))))))
(check-sat)
(exit)
